p edge 20 78 15
e 1 2
e 1 3
e 1 4
e 1 5
e 1 6
e 1 7
e 1 12
e 1 13
e 1 14
e 1 16
e 1 18
e 1 19
e 2 5
e 2 6
e 2 7
e 2 8
e 2 10
e 2 11
e 2 17
e 2 18
e 2 20
e 3 5
e 3 8
e 3 12
e 3 15
e 3 16
e 3 19
e 3 20
e 4 8
e 4 10
e 4 11
e 4 13
e 4 16
e 4 17
e 4 19
e 5 8
e 5 9
e 5 16
e 5 17
e 5 20
e 6 7
e 6 10
e 6 13
e 6 14
e 6 17
e 6 18
e 6 19
e 7 8
e 7 11
e 7 18
e 8 9
e 8 13
e 8 16
e 9 10
e 9 11
e 9 13
e 9 16
e 9 17
e 9 19
e 10 11
e 10 13
e 10 15
e 10 17
e 11 16
e 11 18
e 11 19
e 11 20
e 12 13
e 12 17
e 12 18
e 12 20
e 13 17
e 13 20
e 14 15
e 14 19
e 15 18
e 17 19
e 18 19
